
   7    4
  10   10   10   10

   0   0   0   0   0   3 2 3 4 
   3  10  10  10  10   2 6 5 
   6  10  10  10  10   2 6 5 
   3  10  10  10  10   1 5 
   7  10  10  10  10   1 7
   7  10  10  10  10   1 7
   0   0   0   0   0   0 
